WARNING: for repeatability, setting FPU to use double precision
============================[ Problem Statistics ]=============================
|                                                                             |
|  Number of variables:           100                                         |
|  Number of clauses:             449                                         |
|  Parse time:                   0.00 s                                       |
|  Eliminated clauses:           0.00 Mb                                      |
|  Simplification time:          0.00 s                                       |
|                                                                             |
============================[ Search Statistics ]==============================
| Conflicts |          ORIGINAL         |          LEARNT          | Progress |
|           |    Vars  Clauses Literals |    Limit  Clauses Lit/Cl |          |
===============================================================================
|       100 |      96      438     1342 |      160      100      7 |  0.010 % |
===============================================================================
restarts              : 2
conflicts             : 120            (42493 /sec)
decisions             : 154            (0.00 % random) (54533 /sec)
propagations          : 2534           (897309 /sec)
conflict literals     : 854            (14.86 % deleted)
Memory used           : 13.00 MB
CPU time              : 0.002824 s

SATISFIABLE
